844,86
633,371
311,526
831,406
804,575
521,325
613,273
1011,406
702,427
609,458
254,189
1194,240
575,512
681,346
609,354
702,385
382,818
356,457
436,-75
593,420
710,410
695,318
966,314
698,382
593,285
